0 2042099 
1 1989997 
2 1966597 
3 1956468 
4 1952607 
5 1928735 
6 1782493 
7 1775394 
8 1721471 
9 1697096 
10 1696152 
11 1693507 
12 1683918 
13 1683214 
14 1650461 
15 1603093 
16 1591427 
17 1553144 
18 1523533 
19 1496650 
20 1479752 
21 1471886 
22 1466973 
23 1463773 
24 1463226 
25 1451302 
26 1445020 
27 1443086 
28 1424458 
29 1418436 
30 1368896 
31 1365951 
32 1358085 
33 1355942 
34 1299323 
35 1297987 
36 1294501 
37 1289025 
38 1271899 
39 1265082 
40 1260126 
41 1246172 
42 1223139 
43 1183760 
44 1183760 

